(set-logic ALL)
(declare-fun var0 () String)
(assert (str.in_re var0 (re.++ (re.* (re.union (str.to_re "000") (str.to_re "111"))) (re.++ (re.union (re.* (str.to_re "222")) (re.* (str.to_re "3"))) (re.++ (re.+ (re.+ (str.to_re "444"))) (re.++ (re.* (re.* (str.to_re "55"))) (re.++ (re.union (re.* (str.to_re "66")) (re.* (str.to_re "777"))) (re.++ (re.+ (re.* (str.to_re "88"))) (re.++ (re.+ (re.+ (str.to_re "99"))) (re.++ (re.union (re.+ (str.to_re "aaa")) (re.+ (str.to_re "bbb"))) (re.++ (re.union (re.union (str.to_re "cc") (str.to_re "d")) (re.union (str.to_re "ee") (str.to_re "f"))) (re.++ (re.+ (re.union (str.to_re "gg") (str.to_re "hh"))) (re.++ (re.* (re.* (str.to_re "iii"))) (re.++ (re.* (re.union (str.to_re "jjj") (str.to_re "kk"))) (re.++ (re.+ (re.+ (str.to_re "lll"))) (re.++ (re.+ (re.+ (str.to_re "mm"))) (re.++ (re.* (re.union (str.to_re "nnn") (str.to_re "oo"))) (re.++ (re.union (re.* (str.to_re "pp")) (re.* (str.to_re "q"))) (re.++ (re.+ (re.* (str.to_re "rrr"))) (re.++ (re.* (re.union (str.to_re "ss") (str.to_re "t"))) (re.++ (re.* (re.* (str.to_re "uuu"))) (re.++ (re.* (re.union (str.to_re "v") (str.to_re "www"))) (re.++ (re.union (re.+ (str.to_re "x")) (re.+ (str.to_re "yyy"))) (re.++ (re.union (re.* (str.to_re "zz")) (re.* (str.to_re "AAA"))) (re.++ (re.union (re.* (str.to_re "BB")) (re.* (str.to_re "CCC"))) (re.++ (re.+ (re.* (str.to_re "DDD"))) (re.++ (re.union (re.* (str.to_re "EE")) (re.* (str.to_re "F"))) (re.++ (re.* (re.* (str.to_re "G"))) (re.++ (re.+ (re.union (str.to_re "HHH") (str.to_re "III"))) (re.++ (re.union (re.+ (str.to_re "JJ")) (re.+ (str.to_re "K"))) (re.++ (re.+ (re.+ (str.to_re "LL"))) (re.++ (re.union (re.union (str.to_re "MMM") (str.to_re "N")) (re.union (str.to_re "OOO") (str.to_re "P"))) (re.++ (re.* (re.* (str.to_re "Q"))) (re.++ (re.union (re.+ (str.to_re "RR")) (re.+ (str.to_re "SSS"))) (re.++ (re.union (re.+ (str.to_re "TT")) (re.+ (str.to_re "UUU"))) (re.++ (re.union (re.union (str.to_re "VVV") (str.to_re "W")) (re.union (str.to_re "X") (str.to_re "YYY"))) (re.++ (re.+ (re.+ (str.to_re "Z"))) (re.++ (re.* (re.+ (str.to_re "!!!"))) (re.++ (re.* (re.union (str.to_re """") (str.to_re "##"))) (re.++ (re.* (re.union (str.to_re "$$$") (str.to_re "%%%"))) (re.++ (re.+ (re.* (str.to_re "&&"))) (re.++ (re.+ (re.+ (str.to_re "''"))) (re.++ (re.+ (re.union (str.to_re "((") (str.to_re ")))"))) (re.++ (re.+ (re.* (str.to_re "***"))) (re.++ (re.union (re.union (str.to_re "++") (str.to_re ",")) (re.union (str.to_re "--") (str.to_re ".."))) (re.++ (re.union (re.* (str.to_re "//")) (re.* (str.to_re ":::"))) (re.++ (re.union (re.* (str.to_re ";")) (re.* (str.to_re "<<"))) (re.++ (re.union (re.union (str.to_re "==") (str.to_re ">>>")) (re.union (str.to_re "??") (str.to_re "@"))) (re.++ (re.union (re.+ (str.to_re "[[")) (re.+ (str.to_re "\\\\"))) (re.++ (re.union (re.* (str.to_re "]")) (re.* (str.to_re "^"))) (re.++ (re.+ (re.* (str.to_re "___"))) (re.++ (re.union (re.* (str.to_re "```")) (re.* (str.to_re "{"))) (re.++ (re.union (re.+ (str.to_re "||")) (re.+ (str.to_re "}}}"))) (re.++ (re.union (re.union (str.to_re "~") (str.to_re "000")) (re.union (str.to_re "111") (str.to_re "2"))) (re.++ (re.* (re.union (str.to_re "3") (str.to_re "444"))) (re.++ (re.+ (re.+ (str.to_re "5"))) (re.++ (re.* (re.+ (str.to_re "6"))) (re.++ (re.+ (re.* (str.to_re "7"))) (re.union (re.union (str.to_re "88") (str.to_re "999")) (re.union (str.to_re "aaa") (str.to_re "b")))))))))))))))))))))))))))))))))))))))))))))))))))))))))))))
(check-sat)